\Problem name: p0033.p.lp

Minimize
 obj: 171 C157 + 171 C158 + 171 C159 + 171 C160 + 163 C161 + 162 C162
 + 163 C163 + 69 C164 + 69 C165 + 183 C166 + 183 C167 + 183 C168 + 183 C169
 + 49 C170 + 258 C172 + 517 C173 + 250 C174 + 500 C175 + 250 C176 + 500 C177
 + 159 C178 + 318 C179 + 159 C180 + 318 C181 + 159 C182 + 318 C183 + 159 C184
 + 318 C185 + 114 C186 + 228 C187 + 159 C188 + 318 C189
Subject To
 R114: C157 + C158 + C159 + C160 <= 1
 R115: C161 + C162 + C163 <= 1
 R116: C164 + C165 <= 1
 R117: C166 + C167 + C168 + C169 <= 1
 R118: - C166 - C172 - C173 <= -1
 R119: 60 C159 + 60 C160 + 57 C161 + 57 C162 + 53 C164 + 53 C165 + 46 C168
       + 46 C169 + 38 C170 + 40 C178 + 80 C179 + 40 C180 + 80 C181 + 40 C182
       + 80 C183 + 40 C184 + 80 C185 + 40 C186 + 80 C187 <= 540
 R120: - 60 C159 - 60 C160 - 57 C161 - 57 C162 - 53 C164 - 53 C165 - 46 C168
       - 46 C169 - 38 C170 - 40 C178 - 80 C179 - 40 C180 - 80 C181 - 40 C182
       - 80 C183 - 40 C184 - 80 C185 - 40 C186 - 80 C187 <= -520
 R121: - C160 - C186 - C187 <= -1
 R122: - 60 C157 - 57 C162 - 53 C165 - 38 C170 - 40 C182 - 80 C183 <= -180
 R123: - 60 C157 - 60 C159 - 57 C162 - 53 C165 - 46 C169 - 38 C170 - 40 C182
       - 80 C183 - 40 C184 - 80 C185 <= -332
 R124: - 57 C161 - 53 C164 - 46 C167 - 40 C178 - 67 C179 <= -67
 R125: - 57 C161 - 53 C164 - 46 C167 - 46 C168 - 40 C178 - 80 C179 - 40 C180
       - 80 C181 <= -206
 R126: - C158 - C174 - C175 <= -1
 R127: - 3 C158 - 2 C174 - 4 C175 - 2 C176 - 4 C177 <= -5
 R128: - 27 C163 - 20 C188 - 27 C189 <= -27
Bounds
 0 <= C157 <= 1
 0 <= C158 <= 1
 0 <= C159 <= 1
 0 <= C160 <= 1
 0 <= C161 <= 1
 0 <= C162 <= 1
 0 <= C163 <= 1
 0 <= C164 <= 1
 0 <= C165 <= 1
 0 <= C166 <= 1
 0 <= C167 <= 1
 0 <= C168 <= 1
 0 <= C169 <= 1
 0 <= C170 <= 1
 0 <= C172 <= 1
 0 <= C173 <= 1
 0 <= C174 <= 1
 0 <= C175 <= 1
 0 <= C176 <= 1
 0 <= C177 <= 1
 0 <= C178 <= 1
 0 <= C179 <= 1
 0 <= C180 <= 1
 0 <= C181 <= 1
 0 <= C182 <= 1
 0 <= C183 <= 1
 0 <= C184 <= 1
 0 <= C185 <= 1
 0 <= C186 <= 1
 0 <= C187 <= 1
 0 <= C188 <= 1
 0 <= C189 <= 1
Integers
C157  C158  C159  C160  C161  C162  C163  C164  C165  C166  C167  C168  
C169  C170  C172  C173  C174  C175  C176  C177  C178  C179  C180  C181  
C182  C183  C184  C185  C186  C187  C188  C189  
End
